p cnf 37 35
-1 12 28 -35 -36 0 
-2 3 4 29 -28 -35 -36 0 
-3 2 4 29 -28 -35 -36 0 
-4 2 3 29 -28 -35 -36 0 
-3 2 4 30 -28 -35 -36 0 
-5 30 -28 -35 -36 0 
-6 14 -7 31 -28 -35 -36 0 
-6 14 -7 32 0 
-6 14 -7 33 -28 -35 -36 0 
-6 14 -7 34 0 
-8 30 -28 -35 -36 0 
-9 29 -28 -35 -36 0 
-10 30 -28 -35 -36 0 
-11 30 -28 -35 -36 0 
-12 1 35 -28 -36 0 
-13 30 -28 -35 -36 0 
-14 6 33 -28 -35 -36 0 
-14 6 34 0 
-6 14 31 -28 -35 -36 0 
-6 14 32 0 
-15 29 -28 -35 -36 0 
-16 30 -28 -35 -36 0 
-17 29 -28 -35 -36 0 
-18 36 -28 -35 0 
-17 -19 29 -28 -35 -36 0 
-20 29 -28 -35 -36 0 
-7 37 0 
-21 30 -28 -35 -36 0 
-21 29 -28 -35 -36 0 
-9 30 -28 -35 -36 0 
-22 -23 35 -28 -36 0 
-24 30 -28 -35 -36 0 
-25 30 -28 -35 -36 0 
-26 30 -28 -35 -36 0 
-27 30 -28 -35 -36 0 
